100 8
650 759
472 727
434 858
477 660
687 298
879 731
919 658
831 580
770 329
340 519
93 361
725 667
862 764
503 729
779 884
455 854
300 454
818 193
337 605
588 589
818 530
697 71
764 60
140 441
399 927
336 460
109 268
897 677
757 577
347 825
598 912
688 258
696 417
473 725
430 629
347 542
194 511
675 478
329 638
305 398
697 272
319 380
182 334
127 231
130 498
577 275
97 342
760 765
673 155
398 516
957 362
762 310
768 890
480 724
521 705
103 614
782 597
755 721
220 536
482 844
786 811
593 889
450 706
48 424
737 309
654 88
491 679
814 312
248 343
796 514
431 801
717 424
690 99
172 368
733 408
728 368
154 600
869 896
206 637
364 511
484 683
530 692
406 698
293 361
705 321
468 668
420 671
778 462
193 396
212 682
99 571
379 683
249 645
870 421
491 632
342 620
309 936
700 140
466 802
179 663
